benchmarks_vrp/CMT4/tsp_classic/CMT4_10.vrp
NAME: CMT4_10
TYPE: CVRP
COMMENT: 1028.42 - Cluster Nr.10
DIMENSION: 12
CAPACITY: 200
EDGE_WEIGHT_TYPE: EUC_2D
NODE_COORD_TYPE: TWOD_COORDS
NODE_COORD_SECTION: 
3 65 55
5 57 58
6 35 35
7 53 52
4 55 54
10 49 58
8 55 60
11 52 64
9 61 52
2 57 48
1 49 49
12 47 47
DEPOT_SECTION: 
6
-1
DEMAND_SECTION: 
1 30
2 23
6 0
3 14
4 26
10 10
12 13
11 16
9 3
8 16
5 28
7 11
EOF
