benchmarks_vrp/CMT4/tsp_classic/CMT4_10.tour
NAME: CMT4_10 solution
TYPE: TOUR
TOUR_SECTION:
6 10 11 8 5 3 9 2 4 7 1 12 -1
-1
EOF